c 
p cnf 10 40
-1 -9 10 0
-5 -6 3 0
-3 -9 -8 0
-1 -9 3 0
5 -6 -1 0
1 8 4 0
5 -3 4 0
3 -7 -10 0
9 6 -5 0
-8 -1 3 0
3 -10 4 0
-3 4 2 0
1 8 3 0
10 9 6 0
5 8 2 0
-10 -7 -3 0
4 7 -3 0
-10 -8 1 0
8 3 -9 0
-2 8 -1 0
8 7 5 0
-2 -3 -6 0
7 -8 -5 0
5 -9 -10 0
-3 -8 -1 0
-9 -5 -2 0
7 3 4 0
3 1 8 0
-3 2 -9 0
6 -3 -10 0
10 3 2 0
8 10 5 0
9 -3 -1 0
-4 -1 5 0
-4 -8 -6 0
10 9 -3 0
-10 -5 -6 0
5 -2 -3 0
4 7 2 0
-1 -8 -9 0
